p cnf 41 243
1 -29 0 
29 -1 14 15 16 18 22 23 25 26 27 28 0 
1 -28 2 3 4 5 6 7 8 0 
1 -27 2 3 4 5 6 7 8 0 
1 -26 2 3 4 5 6 7 8 0 
1 -25 3 0 
1 -18 2 3 4 5 6 7 8 0 
1 -16 2 3 4 5 6 7 8 0 
1 -15 2 3 4 5 6 7 8 0 
1 -14 2 3 4 5 6 7 8 0 
24 -8 14 15 16 17 18 19 20 21 22 23 27 26 28 0 
8 -21 2 5 6 7 4 0 
24 -7 14 15 16 17 18 19 20 21 22 23 27 26 28 0 
24 -6 14 15 16 17 18 19 20 21 22 23 27 26 28 0 
10 -13 9 0 
10 -12 9 0 
10 -11 9 0 
24 -4 14 15 16 17 18 19 20 21 22 23 27 26 28 0 
28 -3 14 15 16 17 18 19 20 22 23 24 25 26 27 0 
3 -24 5 6 7 4 8 2 0 
3 -20 5 6 7 4 8 2 0 
3 -19 5 6 7 4 8 2 0 
3 -17 5 6 7 4 8 2 0 
24 -2 14 15 16 17 18 19 20 21 22 23 27 26 28 0 
2 -23 3 4 5 6 7 8 0 
2 -22 3 4 5 6 7 8 0 
-2 -3 0 
-2 -4 0 
-2 -5 0 
-2 -6 0 
-2 -7 0 
-3 -4 0 
-2 -8 0 
-2 -9 0 
-3 -5 0 
-2 -10 0 
-2 -11 0 
-3 -6 0 
-2 -12 0 
-2 -13 0 
-3 -7 0 
-4 -5 0 
-3 -8 0 
-4 -6 0 
-3 -9 0 
-3 -10 0 
-4 -7 0 
-3 -11 0 
-5 -6 0 
-4 -8 0 
-3 -12 0 
-2 -25 0 
-3 -13 0 
-4 -9 0 
-5 -7 0 
-2 -28 0 
-4 -10 0 
-2 -29 0 
-5 -8 0 
-4 -11 0 
-6 -7 0 
-17 -3 0 
-5 -9 0 
-4 -12 0 
-6 -8 0 
-4 -13 0 
-5 -10 0 
-21 -3 0 
-5 -11 0 
-6 -9 0 
-2 -1 0 
1 2 3 4 5 6 7 8 9 10 0 
-7 -8 0 
-5 -12 0 
-6 -10 0 
-5 -13 0 
-7 -9 0 
-6 -11 0 
-7 -10 0 
-6 -12 0 
-3 -29 0 
-8 -9 0 
-6 -13 0 
-7 -11 0 
-8 -10 0 
-7 -12 0 
-8 -11 0 
-4 -25 0 
-7 -13 0 
-9 -10 0 
-8 -12 0 
-4 -28 0 
-3 -1 0 
1 3 -28 0 
-4 -29 0 
-8 -13 0 
-5 -25 0 
-9 -14 0 
-5 -28 0 
-11 -12 0 
-5 -29 0 
-15 -9 0 
-10 -14 0 
-6 -25 0 
-9 -16 0 
-11 -13 0 
-4 -1 0 
-15 -10 0 
-9 -17 0 
-11 -14 0 
-12 -13 0 
-6 -28 0 
-10 -16 0 
-18 -9 0 
-6 -29 0 
-11 -15 0 
-12 -14 0 
-7 -25 0 
-9 -19 0 
-10 -17 0 
-11 -16 0 
-9 -20 0 
-18 -10 0 
-12 -15 0 
-13 -14 0 
-9 -21 0 
-11 -17 0 
-7 -28 0 
-10 -19 0 
-5 -1 0 
-12 -16 0 
-7 -29 0 
-8 -25 0 
-9 -22 0 
-13 -15 0 
-11 -18 0 
-10 -20 0 
-23 -9 0 
-12 -17 0 
-10 -21 0 
-11 -19 0 
-13 -16 0 
-9 -24 0 
-12 -18 0 
-8 -28 0 
-10 -22 0 
-11 -20 0 
-9 -25 0 
-13 -17 0 
-14 -16 0 
-8 -29 0 
-23 -10 0 
-12 -19 0 
-9 -26 0 
-11 -21 0 
-13 -18 0 
-6 -1 0 
-10 -24 0 
-9 -27 0 
-12 -20 0 
-11 -22 0 
-15 -16 0 
-9 -28 0 
-10 -25 0 
-13 -19 0 
-11 -23 0 
-12 -21 0 
-9 -29 0 
-10 -26 0 
-13 -20 0 
-11 -24 0 
-12 -22 0 
-10 -27 0 
-11 -25 0 
-13 -21 0 
-12 -23 0 
-10 -28 0 
-7 -1 0 
-11 -26 0 
-10 -29 0 
-13 -22 0 
-12 -24 0 
-16 -18 0 
-11 -27 0 
-12 -25 0 
-13 -23 0 
-11 -28 0 
-12 -26 0 
-13 -24 0 
-12 -27 0 
-8 -1 0 
-13 -25 0 
-12 -28 0 
-13 -26 0 
-13 -27 0 
-13 -28 0 
-9 -1 0 
-19 -20 0 
-10 -1 0 
-17 -25 0 
-11 -1 0 
-28 -17 0 
-25 -19 0 
-17 -29 0 
-12 -1 0 
-25 -20 0 
-13 -1 0 
-25 -24 0 
-25 -26 0 
-25 -27 0 
-25 -28 0 
-17 -1 0 
-1 -19 0 
-1 -20 0 
-21 -1 0 
30 31 32 33 34 35 36 37 38 39 40 41 9 10 0 
-31 -32 0 
-1 -24 0 
-30 -34 0 
-31 -34 0 
-33 -32 0 
-31 -35 0 
-34 -32 0 
-31 -37 0 
-34 -35 0 
-39 -31 0 
-30 -41 0 
-40 -31 0 
-31 -41 0 
-40 -32 0 
-41 -32 0 
-39 -34 0 
-36 -37 0 
-33 -41 0 
-34 -40 0 
-34 -41 0 
-35 -41 0 
-36 -41 0 
-37 -41 0 
-38 -41 0 
-39 -40 0 
-39 -41 0 
-40 -41 0 
c p weight 1 0.542099 0
c p weight -1 0.457901 0
c p weight 2 0.382231 0
c p weight -2 0.617769 0
c p weight 3 0.60234 0
c p weight -3 0.397660 0
c p weight 4 0.538323 0
c p weight -4 0.461677 0
c p weight 5 0.41863 0
c p weight -5 0.581370 0
c p weight 6 0.579904 0
c p weight -6 0.420096 0
c p weight 7 0.53487 0
c p weight -7 0.465130 0
c p weight 8 0.517328 0
c p weight -8 0.482672 0
c p weight 9 0.49776 0
c p weight -9 0.502240 0
c p weight 10 0.503187 0
c p weight -10 0.496813 0
c p weight 11 0.493677 0
c p weight -11 0.506323 0
c p weight 12 0.454597 0
c p weight -12 0.545403 0
c p weight 13 0.571199 0
c p weight -13 0.428801 0
c p weight 14 0.525012 0
c p weight -14 0.474988 0
c p weight 15 0.455798 0
c p weight -15 0.544202 0
c p weight 16 0.50142 0
c p weight -16 0.498580 0
c p weight 17 0.465799 0
c p weight -17 0.534201 0
c p weight 18 0.49301 0
c p weight -18 0.506990 0
c p weight 19 0.516134 0
c p weight -19 0.483866 0
c p weight 20 0.443145 0
c p weight -20 0.556855 0
c p weight 21 0.453055 0
c p weight -21 0.546945 0
c p weight 22 0.551331 0
c p weight -22 0.448669 0
c p weight 23 0.616835 0
c p weight -23 0.383165 0
c p weight 24 0.56095 0
c p weight -24 0.439050 0
c p weight 25 0.570129 0
c p weight -25 0.429871 0
c p weight 26 0.514151 0
c p weight -26 0.485849 0
c p weight 27 0.495602 0
c p weight -27 0.504398 0
c p weight 28 0.507544 0
c p weight -28 0.492456 0
c p weight 29 0.551381 0
c p weight -29 0.448619 0
c p weight 30 0.5486 0
c p weight -30 0.451400 0
c p weight 31 0.573855 0
c p weight -31 0.426145 0
c p weight 32 0.478053 0
c p weight -32 0.521947 0
c p weight 33 0.559638 0
c p weight -33 0.440362 0
c p weight 34 0.5226 0
c p weight -34 0.477400 0
c p weight 35 0.515305 0
c p weight -35 0.484695 0
c p weight 36 0.470741 0
c p weight -36 0.529259 0
c p weight 37 0.507415 0
c p weight -37 0.492585 0
c p weight 38 0.488636 0
c p weight -38 0.511364 0
c p weight 39 0.483126 0
c p weight -39 0.516874 0
c p weight 40 0.663258 0
c p weight -40 0.336742 0
c p weight 41 0.479478 0
c p weight -41 0.520522 0
